p cnf 20 176
10 15 -17 0
-11 -16 -18 0
-1 -2 -4 0
5 -6 -18 0
-2 -4 17 0
2 9 -13 0
1 -15 -20 0
3 18 19 0
3 -16 20 0
9 -11 14 0
2 -14 -16 0
-6 10 -12 0
-4 -5 -10 0
9 -10 13 0
-2 -10 14 0
-5 -6 11 0
10 19 -20 0
-1 -7 -17 0
9 13 19 0
-5 14 15 0
-2 5 14 0
-3 -9 13 0
-1 14 20 0
1 -8 -18 0
7 -12 14 0
6 -14 -18 0
1 -13 19 0
-7 9 -12 0
7 15 17 0
13 17 19 0
7 -13 15 0
4 6 -13 0
4 -9 16 0
2 -17 -18 0
1 11 -12 0
-2 7 11 0
-1 2 3 0
-13 -16 18 0
-6 -11 14 0
11 -17 18 0
-11 16 19 0
-2 3 -5 0
9 -11 -14 0
1 12 -20 0
4 5 -15 0
-2 -4 10 0
-4 5 12 0
2 5 16 0
7 8 -13 0
-13 -16 17 0
4 8 14 0
-6 8 12 0
16 17 -18 0
3 5 -15 0
10 11 15 0
2 8 -11 0
2 -4 -18 0
-11 -14 -16 0
5 8 17 0
-5 -7 -14 0
-3 -7 13 0
6 -7 19 0
-11 -14 16 0
-1 15 -19 0
-9 12 19 0
-1 -5 19 0
3 9 -20 0
2 4 15 0
13 -14 -17 0
2 -3 -17 0
3 -15 20 0
3 -5 -13 0
3 8 10 0
2 4 12 0
5 -11 13 0
2 -6 11 0
-1 -5 6 0
-2 11 -15 0
3 11 13 0
-5 6 11 0
3 -4 15 0
4 7 -16 0
1 -10 -18 0
3 -14 18 0
-2 -7 16 0
-2 -10 15 0
-1 8 -18 0
-7 -18 -20 0
4 -5 -13 0
4 -11 -20 0
-4 -10 -20 0
5 -11 18 0
6 -18 -20 0
6 13 -16 0
5 -6 14 0
5 -12 -18 0
5 -8 13 0
-9 -12 -16 0
-5 -16 19 0
-6 -8 16 0
-5 9 -13 0
-7 10 -11 0
1 9 -19 0
10 -13 -19 0
-1 -7 10 0
8 17 -19 0
10 -11 17 0
-6 -12 19 0
-4 7 16 0
-2 6 -11 0
2 -15 -18 0
-10 11 15 0
2 -8 -18 0
7 11 -16 0
7 -11 13 0
1 8 -11 0
3 5 11 0
-6 -12 18 0
-3 -5 13 0
-14 -16 18 0
1 -14 19 0
1 5 9 0
-8 -11 -18 0
8 15 -16 0
-2 -7 13 0
6 11 19 0
-6 -13 -19 0
-3 -5 11 0
-11 14 -18 0
-7 18 -19 0
8 -14 -17 0
8 13 19 0
-8 10 -14 0
-9 -15 -19 0
-5 -6 -18 0
9 10 -19 0
7 -8 17 0
-9 13 -17 0
12 -13 16 0
3 -8 20 0
7 15 -20 0
-3 -7 20 0
6 14 16 0
1 -2 19 0
-2 10 17 0
4 8 -9 0
-6 -7 -20 0
-10 -13 20 0
-2 9 -15 0
3 -16 -20 0
14 15 -19 0
-1 -2 9 0
-4 -17 -19 0
13 16 -19 0
1 5 -13 0
4 10 20 0
5 10 -12 0
-4 6 -8 0
2 3 -8 0
5 -6 15 0
-3 5 -12 0
4 -8 13 0
4 8 -13 0
-9 11 -19 0
-5 -13 -19 0
11 -12 15 0
1 12 13 0
6 10 11 0
-4 7 11 0
-2 -4 -12 0
-4 6 17 0
1 -17 -20 0
-2 -6 -14 0
12 17 -20 0
3 -10 -12 0
-2 5 -11 0
